49188 1919 109688 476254 54482 0.92
48964 2608 151714 670205 55244 0.84
49034 2529 147124 673346 55582 1
48900 2955 171150 744631 55980 0.98
48908 3703 215614 937794 54774 1
48910 3238 192623 842795 56502 0.92
49044 1975 112845 493211 55472 0.86
49358 2190 125252 544733 55802 0.94
48986 2003 114768 499280 54844 0.96
48938 2703 156265 697237 56092 0.98
